interval = 30;
days = 7;
demand = [11,11,11,11,11,11,11,11,8,6,6,7,7,11,10,13,13,13,18,18,18,18,18,18,18,18,20,20,19,22,22,22,22,14,14,14,14,14,14,14,14,14,15,14,11,6,13,11,11,11,11,11,11,11,11,11,11,11,11,12,11,15,10,13,13,13,18,18,18,18,18,18,18,18,21,21,17,15,15,15,15,7,7,7,7,7,7,7,7,7,13,13,9,8,15,14,14,14,14,14,14,14,14,14,11,11,11,12,11,15,10,13,13,13,18,18,18,18,18,18,18,18,19,19,17,20,20,20,20,12,12,12,12,12,12,12,12,12,13,13,11,6,13,11,11,11,11,11,11,11,11,11,8,8,8,9,11,15,10,13,13,13,18,18,18,18,18,18,18,18,21,21,16,19,19,19,19,11,11,11,11,11,11,11,11,11,18,18,14,9,16,14,14,14,14,14,14,14,14,14,11,11,11,12,11,15,10,13,13,13,18,18,18,18,18,18,18,18,21,21,19,22,22,22,22,14,14,14,14,14,14,14,14,14,18,18,14,9,17,15,15,15,15,15,15,15,15,15,12,12,12,13,7,7,2,3,3,3,8,8,8,8,8,8,8,8,12,12,14,21,21,21,21,15,15,15,15,15,15,15,15,15,21,21,16,11,17,15,15,15,15,15,15,15,15,15,12,10,10,11,3,3,2,5,5,5,10,10,10,10,10,10,10,10,14,14,16,25,25,25,25,17,17,17,17,17,17,17,17,17,23,23,18,13,15,11];
shiftTypes = 4;
minStart = [10, 18, 26, 42];
maxStart = [16, 22, 30, 46];
minLength = [14, 14, 14, 14];
maxLength = [18, 18, 18, 18];
minDuties = 3;
maxDuties = 5;
avgMinutes = 2310;
weightUnderCover = 1;
weightOverCover = 1;
weightDutiesPerWeek = 1000;
weightShiftInstances = 30;
